p tw 196 4596
1 2
1 3
1 4
1 6
2 3
2 4
2 5
3 4
3 5
3 6
3 8
3 9
3 10
4 5
4 6
4 7
4 9
4 10
5 6
5 7
5 8
5 10
6 7
6 8
6 9
7 8
7 9
7 10
7 12
7 13
7 14
8 9
8 10
8 11
8 13
8 14
9 10
9 11
9 12
9 14
10 11
10 12
10 13
11 12
11 13
11 14
11 16
11 17
11 18
12 13
12 14
12 15
12 17
12 18
13 14
13 15
13 16
13 18
14 15
14 16
14 17
15 16
15 17
15 18
15 22
15 23
15 24
16 17
16 18
16 21
16 23
16 24
17 18
17 21
17 22
17 24
18 21
18 22
18 23
19 20
19 25
19 26
19 34
19 45
19 46
19 47
19 48
19 51
19 52
19 53
19 54
19 55
19 56
19 57
19 58
19 59
19 60
19 62
19 64
19 65
19 141
19 142
19 143
19 144
19 145
19 146
19 149
19 155
19 156
19 157
19 158
19 159
19 160
19 161
20 25
20 26
20 27
20 34
20 45
20 46
20 47
20 48
20 51
20 52
20 53
20 54
20 55
20 56
20 57
20 58
20 59
20 60
20 62
20 64
20 65
20 141
20 142
20 143
20 144
20 145
20 146
20 149
20 155
20 156
20 157
20 158
20 159
20 160
20 161
21 22
21 23
21 24
21 29
21 30
21 31
22 23
22 24
22 28
22 30
22 31
23 24
23 28
23 29
23 31
24 28
24 29
24 30
25 26
25 27
25 32
25 33
25 51
25 52
25 53
25 54
25 55
25 56
25 57
25 58
25 59
25 60
25 62
25 64
25 65
25 71
25 72
25 73
25 74
25 75
25 76
25 77
25 78
25 79
25 80
25 81
25 82
25 84
25 85
25 86
25 87
25 155
25 156
25 157
25 158
25 159
25 160
25 161
25 167
25 168
25 169
25 170
25 171
25 172
26 27
26 32
26 33
26 34
26 51
26 52
26 53
26 54
26 55
26 56
26 57
26 58
26 59
26 60
26 62
26 64
26 65
26 71
26 72
26 73
26 74
26 75
26 76
26 77
26 78
26 79
26 80
26 81
26 82
26 84
26 85
26 86
26 87
26 155
26 156
26 157
26 158
26 159
26 160
26 161
26 167
26 168
26 169
26 170
26 171
26 172
27 32
27 33
27 34
27 51
27 52
27 53
27 54
27 55
27 56
27 57
27 58
27 59
27 60
27 62
27 64
27 65
27 71
27 72
27 73
27 74
27 75
27 76
27 77
27 78
27 79
27 80
27 81
27 82
27 84
27 85
27 86
27 87
27 155
27 156
27 157
27 158
27 159
27 160
27 161
27 167
27 168
27 169
27 170
27 171
27 172
28 29
28 30
28 31
28 36
28 37
28 38
28 40
29 30
29 31
29 35
29 37
29 38
29 40
30 31
30 35
30 36
30 38
30 40
31 35
31 36
31 37
31 40
32 33
32 34
32 71
32 72
32 73
32 74
32 75
32 76
32 77
32 78
32 79
32 80
32 81
32 82
32 84
32 85
32 86
32 87
32 90
32 91
32 92
32 93
32 94
32 95
32 96
32 97
32 98
32 99
32 100
32 101
32 102
32 103
32 107
32 109
32 110
32 111
32 112
32 167
32 168
32 169
32 170
32 171
32 172
32 178
32 179
32 180
32 181
33 34
33 39
33 71
33 72
33 73
33 74
33 75
33 76
33 77
33 78
33 79
33 80
33 81
33 82
33 84
33 85
33 86
33 87
33 90
33 91
33 92
33 93
33 94
33 95
33 96
33 97
33 98
33 99
33 100
33 101
33 102
33 103
33 107
33 109
33 110
33 111
33 112
33 167
33 168
33 169
33 170
33 171
33 172
33 178
33 179
33 180
33 181
34 39
34 71
34 72
34 73
34 74
34 75
34 76
34 77
34 78
34 79
34 80
34 81
34 82
34 84
34 85
34 86
34 87
34 90
34 91
34 92
34 93
34 94
34 95
34 96
34 97
34 98
34 99
34 100
34 101
34 102
34 103
34 107
34 109
34 110
34 111
34 112
34 167
34 168
34 169
34 170
34 171
34 172
34 178
34 179
34 180
34 181
35 36
35 37
35 38
35 40
35 42
35 43
35 44
36 37
36 38
36 40
36 41
36 43
36 44
37 38
37 40
37 41
37 42
37 44
38 40
38 41
38 42
38 43
39 90
39 91
39 92
39 93
39 94
39 95
39 96
39 97
39 98
39 99
39 100
39 101
39 102
39 103
39 107
39 109
39 110
39 111
39 112
39 115
39 116
39 117
39 118
39 119
39 120
39 121
39 122
39 123
39 124
39 125
39 126
39 127
39 178
39 179
39 180
39 181
39 186
40 41
40 42
40 43
40 44
40 45
41 42
41 43
41 44
41 46
41 47
41 48
41 64
42 43
42 44
42 45
42 47
42 48
43 44
43 45
43 46
43 48
44 45
44 46
44 47
45 46
45 47
45 48
45 51
45 52
45 53
45 54
45 55
45 56
45 57
45 58
45 60
45 62
45 64
45 65
45 84
45 149
45 155
45 156
45 157
45 158
45 159
45 160
45 161
46 47
46 48
46 51
46 52
46 53
46 54
46 55
46 56
46 57
46 58
46 59
46 62
46 64
46 65
46 84
46 149
46 155
46 156
46 157
46 158
46 159
46 160
46 161
47 48
47 51
47 52
47 53
47 54
47 55
47 56
47 57
47 58
47 59
47 60
47 64
47 65
47 84
47 149
47 155
47 156
47 157
47 158
47 159
47 160
47 161
48 51
48 52
48 53
48 54
48 55
48 56
48 57
48 58
48 59
48 60
48 62
48 64
48 149
48 155
48 156
48 157
48 158
48 159
48 160
48 161
49 50
49 51
49 52
49 53
49 54
49 55
49 56
49 57
49 58
49 61
49 63
49 66
49 67
49 68
49 69
49 72
49 73
49 74
49 75
49 76
49 138
49 139
49 140
49 141
49 142
49 143
49 144
49 145
49 146
49 147
49 148
49 155
49 156
49 157
49 159
49 161
49 162
49 163
49 190
50 51
50 52
50 53
50 54
50 55
50 56
50 57
50 58
50 61
50 63
50 66
50 67
50 68
50 69
50 70
50 72
50 73
50 74
50 75
50 76
50 77
50 138
50 139
50 140
50 141
50 142
50 143
50 144
50 145
50 146
50 147
50 148
50 155
50 156
50 157
50 159
50 161
50 162
50 163
50 190
51 52
51 53
51 54
51 55
51 56
51 57
51 58
51 59
51 60
51 61
51 62
51 63
51 64
51 65
51 66
51 67
51 68
51 69
51 70
51 71
51 73
51 74
51 75
51 76
51 77
51 78
51 79
51 80
51 81
51 82
51 83
51 84
51 85
51 86
51 87
51 88
51 89
51 104
51 105
51 106
51 108
51 155
51 156
51 157
51 158
51 159
51 160
51 161
51 162
51 163
51 168
51 170
51 172
51 173
51 174
52 53
52 54
52 55
52 56
52 57
52 58
52 59
52 60
52 61
52 62
52 63
52 64
52 65
52 66
52 67
52 68
52 69
52 70
52 71
52 72
52 74
52 75
52 76
52 77
52 78
52 79
52 80
52 81
52 82
52 83
52 84
52 85
52 86
52 87
52 88
52 89
52 104
52 105
52 106
52 108
52 155
52 156
52 157
52 158
52 159
52 160
52 161
52 162
52 163
52 168
52 170
52 172
52 173
52 174
53 54
53 55
53 56
53 57
53 58
53 59
53 60
53 61
53 62
53 63
53 64
53 65
53 66
53 67
53 68
53 69
53 70
53 71
53 72
53 73
53 75
53 76
53 77
53 78
53 79
53 80
53 81
53 82
53 83
53 84
53 85
53 86
53 87
53 88
53 89
53 104
53 105
53 108
53 155
53 156
53 157
53 158
53 159
53 160
53 161
53 162
53 163
53 168
53 170
53 172
53 173
53 174
54 55
54 56
54 57
54 58
54 59
54 60
54 61
54 62
54 63
54 64
54 65
54 66
54 67
54 68
54 69
54 70
54 71
54 72
54 73
54 74
54 76
54 77
54 78
54 79
54 80
54 81
54 82
54 83
54 84
54 85
54 86
54 87
54 88
54 89
54 105
54 155
54 156
54 157
54 158
54 159
54 160
54 161
54 162
54 163
54 168
54 170
54 172
54 173
54 174
55 56
55 57
55 58
55 59
55 60
55 61
55 62
55 63
55 64
55 65
55 66
55 67
55 68
55 69
55 70
55 71
55 72
55 73
55 74
55 75
55 77
55 78
55 79
55 80
55 81
55 82
55 83
55 84
55 85
55 86
55 87
55 88
55 89
55 90
55 155
55 156
55 157
55 158
55 159
55 160
55 161
55 162
55 163
55 168
55 170
55 172
55 173
55 174
56 57
56 58
56 59
56 60
56 61
56 62
56 63
56 64
56 65
56 66
56 67
56 68
56 69
56 70
56 71
56 72
56 73
56 74
56 75
56 76
56 78
56 79
56 80
56 81
56 82
56 83
56 84
56 85
56 86
56 87
56 88
56 89
56 90
56 91
56 92
56 155
56 156
56 157
56 158
56 159
56 160
56 161
56 162
56 163
56 168
56 170
56 172
56 173
56 174
57 58
57 59
57 60
57 61
57 62
57 63
57 64
57 65
57 66
57 67
57 68
57 69
57 70
57 71
57 72
57 73
57 74
57 75
57 76
57 77
57 79
57 80
57 81
57 82
57 83
57 84
57 85
57 86
57 87
57 88
57 89
57 90
57 91
57 92
57 93
57 155
57 156
57 157
57 158
57 159
57 160
57 161
57 162
57 163
57 168
57 170
57 172
57 173
57 174
58 59
58 60
58 61
58 62
58 63
58 64
58 65
58 66
58 67
58 68
58 69
58 70
58 71
58 72
58 73
58 74
58 75
58 76
58 77
58 78
58 80
58 81
58 82
58 83
58 84
58 85
58 86
58 87
58 88
58 89
58 90
58 91
58 92
58 93
58 94
58 155
58 156
58 157
58 158
58 159
58 160
58 161
58 162
58 163
58 168
58 170
58 172
58 173
58 174
59 60
59 62
59 64
59 65
59 71
59 72
59 73
59 74
59 75
59 76
59 77
59 78
59 79
59 81
59 82
59 84
59 85
59 86
59 87
59 158
59 160
59 167
59 168
59 169
59 170
59 171
59 172
60 62
60 64
60 65
60 71
60 72
60 73
60 74
60 75
60 76
60 77
60 78
60 79
60 80
60 81
60 84
60 85
60 86
60 87
60 90
60 158
60 160
60 167
60 168
60 169
60 170
60 171
60 172
61 63
61 66
61 67
61 68
61 69
61 70
61 72
61 73
61 74
61 75
61 76
61 77
61 78
61 79
61 81
61 84
61 85
61 88
61 89
61 95
61 96
61 97
62 64
62 65
62 71
62 72
62 73
62 74
62 75
62 76
62 77
62 78
62 79
62 80
62 81
62 82
62 84
62 85
62 87
62 90
62 91
62 92
62 158
62 160
62 167
62 168
62 169
62 170
62 171
62 172
63 66
63 67
63 68
63 69
63 70
63 72
63 73
63 74
63 75
63 76
63 77
63 78
63 79
63 81
63 83
63 84
63 85
63 88
63 89
63 95
63 96
63 97
63 98
64 65
64 71
64 72
64 73
64 74
64 75
64 76
64 77
64 78
64 79
64 80
64 81
64 82
64 84
64 85
64 86
64 87
64 90
64 91
64 92
64 93
64 94
64 95
64 96
64 97
64 98
64 107
64 158
64 160
64 167
64 168
64 169
64 170
64 171
64 172
65 71
65 72
65 73
65 74
65 75
65 76
65 77
65 78
65 79
65 80
65 81
65 82
65 84
65 85
65 86
65 90
65 91
65 92
65 93
65 158
65 160
65 167
65 168
65 169
65 170
65 171
65 172
66 67
66 68
66 69
66 70
66 72
66 73
66 74
66 75
66 76
66 77
66 78
66 79
66 81
66 83
66 84
66 85
66 89
66 95
66 96
66 97
66 98
66 155
66 156
66 157
66 159
66 161
66 162
66 163
66 168
66 170
66 172
66 173
66 174
67 68
67 69
67 70
67 72
67 73
67 74
67 75
67 76
67 77
67 78
67 79
67 81
67 83
67 84
67 85
67 88
67 95
67 96
67 97
67 98
67 99
68 69
68 70
68 72
68 73
68 74
68 75
68 76
68 77
68 78
68 79
68 81
68 83
68 84
68 85
68 88
68 89
68 95
68 96
68 97
68 98
68 99
68 155
68 156
68 157
68 159
68 161
68 162
68 163
68 168
68 170
68 172
68 173
68 174
69 70
69 72
69 73
69 74
69 75
69 76
69 77
69 78
69 79
69 81
69 83
69 84
69 85
69 88
69 89
69 95
69 96
69 97
69 98
69 99
69 100
70 72
70 73
70 74
70 75
70 76
70 77
70 78
70 79
70 81
70 83
70 84
70 85
70 88
70 89
70 95
70 96
70 97
70 98
70 99
70 155
70 156
70 157
70 159
70 161
70 162
70 163
70 168
70 170
70 172
70 173
70 174
71 72
71 73
71 74
71 75
71 76
71 77
71 78
71 79
71 80
71 81
71 82
71 84
71 85
71 86
71 87
71 90
71 91
71 92
71 93
71 95
71 96
71 97
71 98
71 99
71 100
71 101
71 102
71 103
71 107
71 109
71 110
71 111
71 112
71 126
71 127
71 128
71 129
71 167
71 168
71 169
71 170
71 171
71 172
71 179
71 180
71 181
72 73
72 74
72 75
72 76
72 77
72 78
72 79
72 80
72 81
72 82
72 83
72 84
72 85
72 86
72 87
72 88
72 89
72 90
72 91
72 92
72 93
72 94
72 96
72 97
72 98
72 99
72 100
72 101
72 102
72 103
72 104
72 105
72 106
72 107
72 108
72 109
72 110
72 111
72 112
72 127
72 128
72 129
72 130
72 131
72 167
72 168
72 169
72 170
72 171
72 172
72 173
72 174
72 179
72 180
72 181
72 182
72 183
73 74
73 75
73 76
73 77
73 78
73 79
73 80
73 81
73 82
73 83
73 84
73 85
73 86
73 87
73 88
73 89
73 90
73 91
73 92
73 93
73 94
73 95
73 97
73 98
73 99
73 100
73 101
73 102
73 103
73 104
73 105
73 106
73 107
73 108
73 109
73 110
73 111
73 112
73 129
73 130
73 131
73 167
73 168
73 169
73 170
73 171
73 172
73 173
73 174
73 179
73 180
73 181
73 182
73 183
74 75
74 76
74 77
74 78
74 79
74 80
74 81
74 82
74 83
74 84
74 85
74 86
74 87
74 88
74 89
74 90
74 91
74 92
74 93
74 94
74 95
74 96
74 98
74 99
74 100
74 101
74 102
74 103
74 104
74 105
74 106
74 107
74 108
74 109
74 110
74 111
74 112
74 130
74 167
74 168
74 169
74 170
74 171
74 172
74 173
74 174
74 179
74 180
74 181
74 182
74 183
75 76
75 77
75 78
75 79
75 80
75 81
75 82
75 83
75 84
75 85
75 86
75 87
75 88
75 89
75 90
75 91
75 92
75 93
75 94
75 95
75 96
75 97
75 99
75 100
75 101
75 102
75 103
75 104
75 105
75 106
75 107
75 108
75 109
75 110
75 111
75 112
75 167
75 168
75 169
75 170
75 171
75 172
75 173
75 174
75 179
75 180
75 181
75 182
75 183
76 77
76 78
76 79
76 80
76 81
76 82
76 83
76 84
76 85
76 86
76 87
76 88
76 89
76 90
76 91
76 92
76 93
76 94
76 95
76 96
76 97
76 98
76 100
76 101
76 102
76 103
76 104
76 105
76 106
76 107
76 108
76 109
76 110
76 111
76 112
76 113
76 167
76 168
76 169
76 170
76 171
76 172
76 173
76 174
76 179
76 180
76 181
76 182
76 183
77 78
77 79
77 80
77 81
77 82
77 83
77 84
77 85
77 86
77 87
77 88
77 89
77 90
77 91
77 92
77 93
77 94
77 95
77 96
77 97
77 98
77 99
77 101
77 102
77 103
77 104
77 105
77 106
77 107
77 108
77 109
77 110
77 111
77 112
77 113
77 114
77 115
77 167
77 168
77 169
77 170
77 171
77 172
77 173
77 174
77 179
77 180
77 181
77 182
77 183
78 79
78 80
78 81
78 82
78 83
78 84
78 85
78 86
78 87
78 88
78 89
78 90
78 91
78 92
78 93
78 94
78 95
78 96
78 97
78 98
78 99
78 100
78 102
78 103
78 104
78 105
78 106
78 107
78 108
78 109
78 110
78 111
78 112
78 113
78 114
78 115
78 116
78 167
78 168
78 169
78 170
78 171
78 172
78 173
78 174
78 179
78 180
78 181
78 182
78 183
79 80
79 81
79 82
79 83
79 84
79 85
79 86
79 87
79 88
79 89
79 90
79 91
79 92
79 93
79 94
79 95
79 96
79 97
79 98
79 99
79 100
79 101
79 103
79 104
79 105
79 106
79 107
79 108
79 109
79 110
79 111
79 112
79 113
79 114
79 115
79 116
79 117
79 167
79 168
79 169
79 170
79 171
79 172
79 173
79 174
79 179
79 180
79 181
79 182
79 183
80 81
80 82
80 84
80 85
80 86
80 87
80 90
80 91
80 92
80 93
80 94
80 95
80 96
80 97
80 98
80 99
80 100
80 101
80 102
80 103
80 109
80 110
80 111
80 112
80 129
80 167
80 169
80 171
80 178
80 179
80 180
80 181
81 82
81 83
81 84
81 85
81 86
81 87
81 88
81 89
81 90
81 91
81 92
81 93
81 94
81 95
81 96
81 97
81 98
81 99
81 100
81 101
81 102
81 103
81 104
81 105
81 106
81 107
81 108
81 110
81 111
81 112
81 113
81 114
81 115
81 116
81 117
81 118
81 119
81 167
81 169
81 171
81 178
81 179
81 180
81 181
82 84
82 85
82 86
82 87
82 90
82 91
82 92
82 93
82 94
82 95
82 96
82 97
82 98
82 99
82 100
82 101
82 102
82 103
82 107
82 109
82 111
82 112
82 113
82 167
82 169
82 171
82 178
82 179
82 180
82 181
83 84
83 85
83 88
83 89
83 95
83 96
83 97
83 98
83 99
83 100
83 101
83 102
83 104
83 105
83 106
83 108
83 109
83 118
83 119
83 120
84 85
84 86
84 87
84 88
84 89
84 90
84 91
84 92
84 93
84 94
84 95
84 96
84 97
84 98
84 99
84 100
84 101
84 102
84 103
84 104
84 105
84 106
84 107
84 108
84 109
84 110
84 111
84 112
84 113
84 114
84 115
84 116
84 117
84 118
84 119
84 120
84 121
84 122
84 132
84 133
84 167
84 169
84 171
84 178
84 179
84 180
84 181
85 86
85 87
85 88
85 89
85 90
85 91
85 92
85 93
85 94
85 95
85 96
85 97
85 98
85 99
85 100
85 101
85 102
85 103
85 104
85 105
85 106
85 107
85 108
85 109
85 110
85 111
85 112
85 113
85 114
85 115
85 116
85 117
85 118
85 119
85 120
85 167
85 169
85 171
85 178
85 179
85 180
85 181
86 87
86 90
86 91
86 92
86 93
86 94
86 95
86 96
86 97
86 98
86 99
86 100
86 101
86 102
86 103
86 107
86 109
86 110
86 112
86 113
86 114
86 115
86 167
86 169
86 171
86 178
86 179
86 180
86 181
87 90
87 91
87 92
87 93
87 94
87 95
87 96
87 97
87 98
87 99
87 100
87 101
87 102
87 103
87 107
87 109
87 110
87 111
87 113
87 114
87 115
87 116
87 167
87 169
87 171
87 178
87 179
87 180
87 181
88 89
88 95
88 96
88 97
88 98
88 99
88 100
88 101
88 102
88 104
88 105
88 106
88 108
88 109
88 118
88 119
88 120
88 121
88 168
88 170
88 172
88 173
88 174
88 179
88 180
88 181
88 182
88 183
89 95
89 96
89 97
89 98
89 99
89 100
89 101
89 102
89 104
89 105
89 106
89 108
89 109
89 118
89 119
89 120
89 121
89 122
90 91
90 92
90 93
90 94
90 95
90 96
90 97
90 98
90 99
90 100
90 101
90 102
90 103
90 107
90 109
90 110
90 111
90 112
90 114
90 115
90 116
90 117
90 118
90 119
90 120
90 121
90 122
90 123
90 124
90 125
90 126
90 127
90 128
90 129
90 132
90 133
90 134
90 135
90 144
90 145
90 146
90 147
90 148
90 149
90 178
90 186
91 92
91 93
91 94
91 95
91 96
91 97
91 98
91 99
91 100
91 101
91 102
91 103
91 107
91 109
91 110
91 111
91 112
91 113
91 115
91 116
91 117
91 118
91 119
91 120
91 121
91 122
91 123
91 124
91 125
91 126
91 127
91 128
91 129
91 132
91 133
91 134
91 135
91 145
91 146
91 147
91 148
91 149
91 178
91 186
92 93
92 94
92 95
92 96
92 97
92 98
92 99
92 100
92 101
92 102
92 103
92 107
92 109
92 110
92 111
92 112
92 113
92 114
92 116
92 117
92 118
92 119
92 120
92 121
92 122
92 123
92 124
92 125
92 126
92 127
92 128
92 129
92 132
92 133
92 134
92 135
92 145
92 146
92 147
92 148
92 149
92 178
92 179
92 180
92 181
92 186
93 94
93 95
93 96
93 97
93 98
93 99
93 100
93 101
93 102
93 103
93 107
93 109
93 110
93 111
93 112
93 113
93 114
93 115
93 117
93 118
93 119
93 120
93 121
93 122
93 123
93 124
93 125
93 126
93 127
93 128
93 129
93 132
93 133
93 134
93 135
93 146
93 147
93 148
93 149
93 178
93 179
93 180
93 181
93 186
94 95
94 96
94 97
94 98
94 99
94 100
94 101
94 102
94 103
94 107
94 109
94 110
94 111
94 112
94 113
94 114
94 115
94 116
94 118
94 119
94 120
94 121
94 122
94 123
94 124
94 125
94 126
94 127
94 128
94 129
94 132
94 133
94 134
94 135
94 147
94 148
94 149
94 178
94 179
94 180
94 181
94 186
95 96
95 97
95 98
95 99
95 100
95 101
95 102
95 103
95 104
95 105
95 106
95 107
95 108
95 109
95 110
95 111
95 112
95 113
95 114
95 115
95 116
95 117
95 119
95 120
95 121
95 122
95 123
95 124
95 125
95 126
95 127
95 128
95 129
95 130
95 131
95 132
95 133
95 134
95 135
95 148
95 149
95 178
95 179
95 180
95 181
95 182
95 183
95 186
95 187
95 188
96 97
96 98
96 99
96 100
96 101
96 102
96 103
96 104
96 105
96 106
96 107
96 108
96 109
96 110
96 111
96 112
96 113
96 114
96 115
96 116
96 117
96 118
96 120
96 121
96 122
96 123
96 124
96 125
96 126
96 127
96 128
96 129
96 130
96 131
96 132
96 133
96 134
96 135
96 178
96 179
96 180
96 181
96 182
96 183
96 186
96 187
96 188
97 98
97 99
97 100
97 101
97 102
97 103
97 104
97 105
97 106
97 107
97 108
97 109
97 110
97 111
97 112
97 113
97 114
97 115
97 116
97 117
97 118
97 119
97 121
97 122
97 123
97 124
97 125
97 126
97 127
97 128
97 129
97 130
97 131
97 132
97 133
97 134
97 135
97 178
97 179
97 180
97 181
97 182
97 183
97 186
97 187
97 188
98 99
98 100
98 101
98 102
98 103
98 104
98 105
98 106
98 107
98 108
98 109
98 110
98 111
98 112
98 113
98 114
98 115
98 116
98 117
98 118
98 119
98 120
98 122
98 123
98 124
98 125
98 126
98 127
98 128
98 129
98 130
98 131
98 132
98 133
98 134
98 135
98 178
98 179
98 180
98 181
98 182
98 183
98 186
98 187
98 188
99 100
99 101
99 102
99 103
99 104
99 105
99 106
99 107
99 108
99 109
99 110
99 111
99 112
99 113
99 114
99 115
99 116
99 117
99 118
99 119
99 120
99 121
99 123
99 124
99 125
99 126
99 127
99 128
99 129
99 130
99 131
99 132
99 133
99 134
99 135
99 136
99 178
99 179
99 180
99 181
99 182
99 183
99 186
99 187
99 188
100 101
100 102
100 103
100 104
100 105
100 106
100 107
100 108
100 109
100 110
100 111
100 112
100 113
100 114
100 115
100 116
100 117
100 118
100 119
100 120
100 121
100 122
100 124
100 125
100 126
100 127
100 128
100 129
100 130
100 131
100 132
100 133
100 134
100 135
100 136
100 137
100 138
100 178
100 179
100 180
100 181
100 182
100 183
100 186
100 187
100 188
101 102
101 103
101 104
101 105
101 106
101 107
101 108
101 109
101 110
101 111
101 112
101 113
101 114
101 115
101 116
101 117
101 118
101 119
101 120
101 121
101 122
101 123
101 125
101 126
101 127
101 128
101 129
101 130
101 131
101 132
101 133
101 134
101 135
101 136
101 137
101 138
101 139
101 178
101 179
101 180
101 181
101 182
101 183
101 186
101 187
101 188
102 103
102 104
102 105
102 106
102 107
102 108
102 109
102 110
102 111
102 112
102 113
102 114
102 115
102 116
102 117
102 118
102 119
102 120
102 121
102 122
102 123
102 124
102 126
102 127
102 128
102 129
102 130
102 131
102 132
102 133
102 134
102 135
102 136
102 137
102 138
102 139
102 140
102 178
102 179
102 180
102 181
102 182
102 183
102 186
102 187
102 188
103 107
103 109
103 110
103 111
103 112
103 113
103 114
103 115
103 116
103 117
103 118
103 119
103 120
103 121
103 122
103 123
103 124
103 125
103 127
103 128
103 129
103 132
103 133
103 134
103 135
103 136
103 137
103 138
103 139
103 140
103 141
103 178
103 179
103 180
103 181
103 186
104 105
104 106
104 108
104 109
104 118
104 119
104 120
104 121
104 122
104 123
104 124
104 125
104 128
104 129
104 131
104 141
104 142
104 143
104 179
104 180
104 181
104 182
104 183
104 186
104 187
104 188
105 106
105 108
105 109
105 118
105 119
105 120
105 121
105 122
105 123
105 124
105 125
105 128
105 129
105 130
105 131
105 141
105 142
105 143
105 144
105 179
105 180
105 181
105 182
105 183
105 186
105 187
105 188
106 108
106 109
106 118
106 119
106 120
106 121
106 122
106 123
106 124
106 125
106 128
106 129
106 130
106 141
106 142
107 109
107 110
107 111
107 112
107 113
107 114
107 115
107 116
107 117
107 118
107 119
107 120
107 121
107 122
107 123
107 124
107 125
107 126
107 127
107 128
107 129
107 133
107 134
107 135
107 178
107 186
108 109
108 118
108 119
108 120
108 121
108 122
108 123
108 124
108 125
108 128
108 129
108 130
108 131
108 141
108 142
108 143
109 110
109 111
109 112
109 113
109 114
109 115
109 116
109 117
109 118
109 119
109 120
109 121
109 122
109 123
109 124
109 125
109 126
109 127
109 128
109 129
109 130
109 131
109 132
109 133
109 134
109 135
109 136
109 137
109 138
109 139
109 140
109 141
109 178
109 186
110 111
110 112
110 113
110 114
110 115
110 116
110 117
110 118
110 119
110 120
110 121
110 122
110 123
110 124
110 125
110 126
110 127
110 128
110 129
110 132
110 134
110 135
110 136
110 178
110 186
111 112
111 113
111 114
111 115
111 116
111 117
111 118
111 119
111 120
111 121
111 122
111 123
111 124
111 125
111 126
111 127
111 128
111 129
111 132
111 133
111 135
111 136
111 137
111 138
111 178
111 186
112 113
112 114
112 115
112 116
112 117
112 118
112 119
112 120
112 121
112 122
112 123
112 124
112 125
112 126
112 127
112 128
112 129
112 132
112 133
112 134
112 136
112 137
112 138
112 139
112 178
112 186
113 114
113 115
113 116
113 117
113 118
113 119
113 120
113 121
113 122
113 123
113 124
113 125
113 126
113 127
113 128
113 129
113 132
113 133
113 134
113 135
113 137
113 138
113 139
113 140
113 141
113 142
113 143
113 144
113 145
113 146
113 147
113 148
113 149
113 150
113 151
113 152
113 157
113 159
113 161
113 162
113 163
114 115
114 116
114 117
114 118
114 119
114 120
114 121
114 122
114 123
114 124
114 125
114 126
114 127
114 128
114 129
114 132
114 133
114 134
114 135
114 136
114 138
114 139
114 140
114 141
114 142
114 143
114 144
114 145
114 146
114 147
114 148
114 149
114 150
114 151
114 152
114 159
114 161
114 162
114 163
115 116
115 117
115 118
115 119
115 120
115 121
115 122
115 123
115 124
115 125
115 126
115 127
115 128
115 129
115 132
115 133
115 134
115 135
115 136
115 137
115 139
115 140
115 141
115 142
115 143
115 144
115 145
115 146
115 147
115 148
115 149
115 150
115 151
115 152
115 159
115 161
115 162
115 163
115 186
115 190
116 117
116 118
116 119
116 120
116 121
116 122
116 123
116 124
116 125
116 126
116 127
116 128
116 129
116 132
116 133
116 134
116 135
116 136
116 137
116 138
116 140
116 141
116 142
116 143
116 144
116 145
116 146
116 147
116 148
116 149
116 150
116 151
116 152
116 161
116 162
116 163
116 186
116 190
117 118
117 119
117 120
117 121
117 122
117 123
117 124
117 125
117 126
117 127
117 128
117 129
117 132
117 133
117 134
117 135
117 136
117 137
117 138
117 139
117 141
117 142
117 143
117 144
117 145
117 146
117 147
117 148
117 149
117 150
117 151
117 152
117 162
117 163
117 186
117 190
118 119
118 120
118 121
118 122
118 123
118 124
118 125
118 126
118 127
118 128
118 129
118 130
118 131
118 132
118 133
118 134
118 135
118 136
118 137
118 138
118 139
118 140
118 142
118 143
118 144
118 145
118 146
118 147
118 148
118 149
118 150
118 151
118 152
118 158
118 160
118 163
118 186
118 187
118 188
118 190
118 191
118 192
118 193
118 194
119 120
119 121
119 122
119 123
119 124
119 125
119 126
119 127
119 128
119 129
119 130
119 131
119 132
119 133
119 134
119 135
119 136
119 137
119 138
119 139
119 140
119 141
119 142
119 143
119 144
119 145
119 146
119 147
119 148
119 149
119 150
119 151
119 152
119 160
119 186
119 187
119 188
119 190
119 191
119 192
119 193
119 194
120 121
120 122
120 123
120 124
120 125
120 126
120 127
120 128
120 129
120 130
120 131
120 132
120 133
120 134
120 135
120 136
120 137
120 138
120 139
120 140
120 141
120 142
120 143
120 144
120 145
120 146
120 147
120 148
120 149
120 150
120 151
120 152
120 186
120 187
120 188
120 190
120 191
120 192
120 193
120 194
121 122
121 123
121 124
121 125
121 126
121 127
121 128
121 129
121 130
121 131
121 132
121 133
121 134
121 135
121 136
121 137
121 138
121 139
121 140
121 141
121 143
121 144
121 145
121 146
121 147
121 148
121 149
121 150
121 151
121 152
121 186
121 187
121 188
121 190
121 191
121 192
121 193
121 194
122 123
122 124
122 125
122 126
122 127
122 128
122 129
122 130
122 131
122 132
122 133
122 134
122 135
122 136
122 137
122 138
122 139
122 140
122 141
122 142
122 144
122 145
122 146
122 147
122 148
122 149
122 150
122 151
122 152
122 153
122 186
122 187
122 188
122 190
122 191
122 192
122 193
122 194
123 124
123 125
123 126
123 127
123 128
123 129
123 130
123 131
123 132
123 133
123 134
123 135
123 136
123 137
123 138
123 139
123 140
123 141
123 142
123 143
123 145
123 146
123 147
123 148
123 149
123 150
123 151
123 152
123 153
123 154
123 186
123 187
123 188
123 190
123 191
123 192
123 193
123 194
124 125
124 126
124 127
124 128
124 129
124 130
124 131
124 132
124 133
124 134
124 135
124 136
124 137
124 138
124 139
124 140
124 141
124 142
124 143
124 144
124 146
124 147
124 148
124 149
124 150
124 151
124 152
124 153
124 154
124 186
124 187
124 188
124 190
124 191
124 192
124 193
124 194
125 126
125 127
125 128
125 129
125 130
125 131
125 132
125 133
125 134
125 135
125 136
125 137
125 138
125 139
125 140
125 141
125 142
125 143
125 144
125 145
125 147
125 148
125 149
125 150
125 151
125 152
125 153
125 154
125 186
125 187
125 188
125 190
125 191
125 192
125 193
125 194
126 127
126 128
126 129
126 132
126 133
126 134
126 135
126 136
126 137
126 138
126 139
126 140
126 141
126 142
126 143
126 144
126 145
126 146
126 148
126 149
126 150
126 151
126 152
126 153
126 154
126 186
126 190
127 128
127 129
127 132
127 133
127 134
127 135
127 136
127 137
127 138
127 139
127 140
127 141
127 142
127 143
127 144
127 145
127 146
127 147
127 149
127 150
127 151
127 152
127 153
127 154
127 186
127 190
128 129
128 130
128 131
128 132
128 133
128 134
128 135
128 136
128 137
128 138
128 139
128 140
128 141
128 142
128 143
128 144
128 145
128 146
128 147
128 148
128 150
128 151
128 152
128 153
128 154
129 130
129 131
129 132
129 133
129 134
129 135
129 136
129 137
129 138
129 139
129 140
129 141
129 142
129 143
129 144
129 145
129 146
129 147
129 148
129 149
129 150
129 151
129 152
129 153
129 154
130 131
130 141
130 142
130 143
130 144
130 145
130 146
130 149
130 155
130 156
130 186
130 187
130 188
130 190
130 191
130 192
130 193
130 194
131 141
131 142
131 143
131 144
131 145
131 146
131 149
131 155
132 133
132 134
132 135
132 136
132 137
132 138
132 139
132 140
132 141
132 142
132 143
132 144
132 145
132 146
132 147
132 148
132 149
132 150
132 151
132 152
133 134
133 135
133 136
133 137
133 138
133 139
133 140
133 141
133 142
133 143
133 144
133 145
133 146
133 147
133 148
133 149
133 151
133 152
133 153
134 135
134 136
134 137
134 138
134 139
134 140
134 141
134 142
134 143
134 144
134 145
134 146
134 147
134 148
134 149
134 150
134 152
134 153
134 154
135 136
135 137
135 138
135 139
135 140
135 141
135 142
135 143
135 144
135 145
135 146
135 147
135 148
135 149
135 150
135 151
135 153
135 154
136 137
136 138
136 139
136 140
136 141
136 142
136 143
136 144
136 145
136 146
136 147
136 148
136 149
136 150
136 151
136 152
136 154
136 155
136 156
136 157
136 159
136 161
136 162
136 163
136 164
136 165
136 166
136 172
136 173
136 174
137 138
137 139
137 140
137 141
137 142
137 143
137 144
137 145
137 146
137 147
137 148
137 149
137 150
137 151
137 152
137 153
137 155
137 156
137 157
137 159
137 161
137 162
137 163
137 164
137 165
137 166
137 172
137 173
137 174
138 139
138 140
138 141
138 142
138 143
138 144
138 145
138 146
138 147
138 148
138 149
138 150
138 151
138 152
138 153
138 154
138 155
138 156
138 157
138 159
138 161
138 162
138 163
138 164
138 165
138 166
138 172
138 173
138 174
138 190
139 140
139 141
139 142
139 143
139 144
139 145
139 146
139 147
139 148
139 149
139 150
139 151
139 152
139 153
139 154
139 155
139 156
139 157
139 159
139 161
139 162
139 163
139 164
139 165
139 166
139 172
139 173
139 174
139 190
140 141
140 142
140 143
140 144
140 145
140 146
140 147
140 148
140 149
140 150
140 151
140 152
140 153
140 154
140 155
140 156
140 157
140 159
140 161
140 162
140 163
140 164
140 165
140 166
140 173
140 174
140 190
141 142
141 143
141 144
141 145
141 146
141 147
141 148
141 149
141 150
141 151
141 152
141 153
141 154
141 155
141 156
141 157
141 158
141 159
141 160
141 161
141 162
141 163
141 164
141 165
141 166
141 167
141 169
141 171
141 174
141 190
141 191
141 192
141 193
141 194
141 195
141 196
142 143
142 144
142 145
142 146
142 147
142 148
142 149
142 150
142 151
142 152
142 153
142 154
142 156
142 157
142 158
142 159
142 160
142 161
142 162
142 163
142 164
142 165
142 166
142 190
142 191
142 192
142 193
142 194
142 195
142 196
143 144
143 145
143 146
143 147
143 148
143 149
143 150
143 151
143 152
143 153
143 154
143 155
143 157
143 158
143 159
143 160
143 161
143 162
143 163
143 164
143 165
143 166
143 190
143 191
143 192
143 193
143 194
143 195
143 196
144 145
144 146
144 147
144 148
144 149
144 150
144 151
144 152
144 153
144 154
144 155
144 156
144 158
144 159
144 160
144 161
144 162
144 163
144 164
144 165
144 166
144 190
144 191
144 192
144 193
144 194
144 195
144 196
145 146
145 147
145 148
145 149
145 150
145 151
145 152
145 153
145 154
145 155
145 156
145 157
145 158
145 160
145 161
145 162
145 163
145 164
145 165
145 166
145 190
145 191
145 192
145 193
145 194
145 195
145 196
146 147
146 148
146 149
146 150
146 151
146 152
146 153
146 154
146 155
146 156
146 157
146 158
146 159
146 160
146 162
146 163
146 164
146 165
146 166
146 190
146 191
146 192
146 193
146 194
146 195
146 196
147 148
147 149
147 150
147 151
147 152
147 153
147 154
147 155
147 156
147 157
147 159
147 161
147 163
147 164
147 165
147 166
147 190
148 149
148 150
148 151
148 152
148 153
148 154
148 155
148 156
148 157
148 159
148 161
148 162
148 164
148 165
148 166
148 190
149 150
149 151
149 152
149 153
149 154
149 155
149 156
149 157
149 158
149 159
149 160
149 161
149 162
149 163
149 164
149 165
149 166
150 151
150 152
150 153
150 154
150 155
150 156
150 157
150 159
150 161
150 162
150 163
150 165
150 166
151 152
151 153
151 154
151 155
151 156
151 157
151 159
151 161
151 162
151 163
151 164
151 166
152 153
152 154
152 155
152 156
152 157
152 159
152 161
152 162
152 163
152 164
152 165
153 154
153 155
153 156
153 157
153 159
153 161
153 162
153 163
153 164
153 165
153 166
153 168
153 170
153 172
153 173
153 174
153 175
153 176
153 177
153 180
153 181
153 182
153 183
154 155
154 156
154 157
154 159
154 161
154 162
154 163
154 164
154 165
154 166
154 168
154 170
154 172
154 173
154 174
154 175
154 176
154 177
154 181
154 182
154 183
155 156
155 157
155 158
155 159
155 160
155 161
155 162
155 163
155 164
155 165
155 166
155 167
155 168
155 169
155 170
155 171
155 172
155 173
155 174
155 175
155 176
155 177
155 195
155 196
156 157
156 158
156 159
156 160
156 161
156 162
156 163
156 164
156 165
156 166
156 167
156 169
156 170
156 171
156 172
156 173
156 174
156 175
156 176
156 177
156 195
156 196
157 158
157 159
157 160
157 161
157 162
157 163
157 164
157 165
157 166
157 167
157 168
157 169
157 171
157 172
157 173
157 174
157 175
157 176
157 177
157 195
157 196
158 159
158 160
158 161
158 167
158 168
158 169
158 170
158 172
159 160
159 161
159 162
159 163
159 164
159 165
159 166
159 167
159 168
159 169
159 170
159 171
159 172
159 173
159 174
159 175
159 176
159 177
159 195
159 196
160 161
160 167
160 168
160 169
160 170
160 171
160 172
161 162
161 163
161 164
161 165
161 166
161 167
161 168
161 169
161 170
161 171
161 173
161 174
161 175
161 176
161 177
161 195
161 196
162 163
162 164
162 165
162 166
162 168
162 170
162 172
162 174
162 175
162 176
162 177
163 164
163 165
163 166
163 168
163 170
163 172
163 173
163 175
163 176
163 177
164 165
164 166
164 168
164 170
164 172
164 173
164 174
164 176
164 177
165 166
165 168
165 170
165 172
165 173
165 174
165 175
165 177
166 168
166 170
166 172
166 173
166 174
166 175
166 176
167 168
167 169
167 170
167 171
167 172
167 179
167 180
167 181
168 169
168 170
168 171
168 172
168 173
168 174
168 175
168 176
168 177
168 178
168 180
168 181
168 182
168 183
168 184
168 185
169 170
169 171
169 172
169 178
169 179
169 180
169 181
170 171
170 172
170 173
170 174
170 175
170 176
170 177
170 178
170 179
170 181
170 182
170 183
170 184
170 185
171 172
171 178
171 179
171 180
171 181
172 173
172 174
172 175
172 176
172 177
172 178
172 179
172 180
172 182
172 183
172 184
172 185
173 174
173 175
173 176
173 177
173 179
173 180
173 181
173 183
173 184
173 185
174 175
174 176
174 177
174 179
174 180
174 181
174 182
174 184
174 185
175 176
175 177
175 179
175 180
175 181
175 182
175 183
175 184
175 185
176 177
176 179
176 180
176 181
176 182
176 183
176 185
177 179
177 180
177 181
177 182
177 183
177 184
178 179
178 180
178 181
178 186
179 180
179 181
179 182
179 183
179 184
179 185
179 186
179 187
179 188
179 189
180 181
180 182
180 183
180 184
180 185
180 186
180 187
180 188
180 189
181 182
181 183
181 184
181 185
181 187
181 188
181 189
182 183
182 184
182 185
182 186
182 188
182 189
183 184
183 185
183 186
183 187
183 189
184 185
184 186
184 187
184 188
184 189
185 186
185 187
185 188
186 187
186 188
186 189
186 191
186 192
186 193
186 194
187 188
187 189
187 190
187 192
187 193
187 194
188 189
188 190
188 191
188 193
188 194
189 190
189 191
189 192
189 193
189 194
190 191
190 192
190 193
190 194
190 195
190 196
191 192
191 193
191 194
191 195
191 196
192 193
192 194
192 195
192 196
193 194
193 196
194 195
195 196
